sat
(
  (define-fun inv ((x!0 Int) (x!1 Int)) Bool
    (and (or (not (<= x!0 99)) (not (>= x!1 199)))
         (or (not (<= x!1 3)) (not (>= x!0 2)))
         (not (<= x!1 (- 1)))
         (or (not (<= x!1 1)) (not (>= x!0 1)))
         (or (not (<= x!1 5)) (not (>= x!0 3)))
         (or (not (<= x!1 7)) (not (>= x!0 4)))
         (or (not (<= x!1 9)) (not (>= x!0 5)))
         (or (not (<= x!1 11)) (not (>= x!0 6)))
         (or (not (<= x!1 13)) (not (>= x!0 7)))
         (or (not (<= x!1 15)) (not (>= x!0 8)))
         (or (not (<= x!1 17)) (not (>= x!0 9)))
         (or (not (<= x!1 19)) (not (>= x!0 10)))
         (or (not (<= x!1 21)) (not (>= x!0 11)))
         (or (not (<= x!1 23)) (not (>= x!0 12)))
         (or (not (<= x!1 25)) (not (>= x!0 13)))
         (or (not (<= x!1 27)) (not (>= x!0 14)))
         (or (not (<= x!1 29)) (not (>= x!0 15)))
         (or (not (<= x!1 31)) (not (>= x!0 16)))
         (or (not (<= x!1 33)) (not (>= x!0 17)))
         (or (not (<= x!1 35)) (not (>= x!0 18)))
         (or (not (<= x!1 37)) (not (>= x!0 19)))
         (or (not (<= x!1 39)) (not (>= x!0 20)))
         (or (not (<= x!1 41)) (not (>= x!0 21)))
         (or (not (<= x!1 43)) (not (>= x!0 22)))
         (or (not (<= x!1 45)) (not (>= x!0 23)))
         (or (not (<= x!1 47)) (not (>= x!0 24)))
         (or (not (<= x!1 49)) (not (>= x!0 25)))
         (or (not (<= x!1 51)) (not (>= x!0 26)))
         (or (not (<= x!1 53)) (not (>= x!0 27)))
         (or (not (<= x!1 55)) (not (>= x!0 28)))
         (or (not (<= x!1 57)) (not (>= x!0 29)))
         (or (not (<= x!1 59)) (not (>= x!0 30)))
         (or (not (<= x!1 61)) (not (>= x!0 31)))
         (or (not (<= x!1 63)) (not (>= x!0 32)))
         (or (not (<= x!1 65)) (not (>= x!0 33)))
         (or (not (<= x!1 67)) (not (>= x!0 34)))
         (or (not (<= x!1 69)) (not (>= x!0 35)))
         (or (not (<= x!1 71)) (not (>= x!0 36)))
         (or (not (<= x!1 73)) (not (>= x!0 37)))
         (or (not (<= x!1 75)) (not (>= x!0 38)))
         (or (not (<= x!1 77)) (not (>= x!0 39)))
         (or (not (<= x!1 79)) (not (>= x!0 40)))
         (or (not (<= x!1 81)) (not (>= x!0 41)))
         (or (not (<= x!1 83)) (not (>= x!0 42)))
         (or (not (<= x!1 85)) (not (>= x!0 43)))
         (or (not (<= x!1 87)) (not (>= x!0 44)))
         (or (not (<= x!1 89)) (not (>= x!0 45)))
         (or (not (<= x!1 91)) (not (>= x!0 46)))
         (or (not (<= x!1 93)) (not (>= x!0 47)))
         (or (not (<= x!1 95)) (not (>= x!0 48)))
         (or (not (<= x!1 97)) (not (>= x!0 49)))
         (or (not (<= x!1 99)) (not (>= x!0 50)))
         (or (not (<= x!1 101)) (not (>= x!0 51)))
         (or (not (<= x!1 103)) (not (>= x!0 52)))
         (or (not (<= x!1 105)) (not (>= x!0 53)))
         (or (not (<= x!1 107)) (not (>= x!0 54)))
         (or (not (<= x!1 109)) (not (>= x!0 55)))
         (or (not (<= x!1 111)) (not (>= x!0 56)))
         (or (not (<= x!1 113)) (not (>= x!0 57)))
         (or (not (<= x!1 115)) (not (>= x!0 58)))
         (or (not (<= x!1 117)) (not (>= x!0 59)))
         (or (not (<= x!1 119)) (not (>= x!0 60)))
         (or (not (<= x!1 121)) (not (>= x!0 61)))
         (or (not (<= x!1 123)) (not (>= x!0 62)))
         (or (not (<= x!1 125)) (not (>= x!0 63)))
         (or (not (<= x!1 127)) (not (>= x!0 64)))
         (or (not (<= x!1 129)) (not (>= x!0 65)))
         (or (not (<= x!1 131)) (not (>= x!0 66)))
         (or (not (<= x!1 133)) (not (>= x!0 67)))
         (or (not (<= x!1 135)) (not (>= x!0 68)))
         (or (not (<= x!1 137)) (not (>= x!0 69)))
         (or (not (<= x!1 139)) (not (>= x!0 70)))
         (or (not (<= x!1 141)) (not (>= x!0 71)))
         (or (not (<= x!1 143)) (not (>= x!0 72)))
         (or (not (<= x!1 145)) (not (>= x!0 73)))
         (or (not (<= x!1 147)) (not (>= x!0 74)))
         (or (not (<= x!1 149)) (not (>= x!0 75)))
         (or (not (<= x!1 151)) (not (>= x!0 76)))
         (or (not (<= x!1 153)) (not (>= x!0 77)))
         (or (not (<= x!1 155)) (not (>= x!0 78)))
         (or (not (<= x!1 157)) (not (>= x!0 79)))
         (or (not (<= x!1 159)) (not (>= x!0 80)))
         (or (not (<= x!1 161)) (not (>= x!0 81)))
         (or (not (<= x!1 163)) (not (>= x!0 82)))
         (or (not (<= x!1 165)) (not (>= x!0 83)))
         (or (not (<= x!1 167)) (not (>= x!0 84)))
         (or (not (<= x!1 169)) (not (>= x!0 85)))
         (or (not (<= x!1 171)) (not (>= x!0 86)))
         (or (not (<= x!1 173)) (not (>= x!0 87)))
         (or (not (<= x!1 175)) (not (>= x!0 88)))
         (or (not (<= x!1 177)) (not (>= x!0 89)))
         (or (not (<= x!1 179)) (not (>= x!0 90)))
         (or (not (<= x!1 181)) (not (>= x!0 91)))
         (or (not (<= x!1 183)) (not (>= x!0 92)))
         (or (not (<= x!1 185)) (not (>= x!0 93)))
         (or (not (<= x!1 187)) (not (>= x!0 94)))
         (or (not (<= x!1 189)) (not (>= x!0 95)))
         (or (not (<= x!1 191)) (not (>= x!0 96)))
         (or (not (<= x!1 193)) (not (>= x!0 97)))
         (or (not (<= x!1 195)) (not (>= x!0 98)))
         (or (not (<= x!1 199)) (not (>= x!0 100)))
         (or (not (<= x!1 197)) (not (>= x!0 99)))
         (not (>= x!1 201))
         (not (<= x!0 (- 1)))
         (or (not (<= x!0 0)) (not (>= x!1 1)))
         (or (not (<= x!0 1)) (not (>= x!1 3)))
         (or (not (<= x!0 2)) (not (>= x!1 5)))
         (or (not (<= x!0 3)) (not (>= x!1 7)))
         (or (not (<= x!0 4)) (not (>= x!1 9)))
         (or (not (<= x!0 5)) (not (>= x!1 11)))
         (or (not (<= x!0 6)) (not (>= x!1 13)))
         (or (not (<= x!0 7)) (not (>= x!1 15)))
         (or (not (<= x!0 8)) (not (>= x!1 17)))
         (or (not (<= x!0 9)) (not (>= x!1 19)))
         (or (not (<= x!0 10)) (not (>= x!1 21)))
         (or (not (<= x!0 11)) (not (>= x!1 23)))
         (or (not (<= x!0 12)) (not (>= x!1 25)))
         (or (not (<= x!0 13)) (not (>= x!1 27)))
         (or (not (<= x!0 14)) (not (>= x!1 29)))
         (or (not (<= x!0 15)) (not (>= x!1 31)))
         (or (not (<= x!0 16)) (not (>= x!1 33)))
         (or (not (<= x!0 17)) (not (>= x!1 35)))
         (or (not (<= x!0 18)) (not (>= x!1 37)))
         (or (not (<= x!0 19)) (not (>= x!1 39)))
         (or (not (<= x!0 20)) (not (>= x!1 41)))
         (or (not (<= x!0 21)) (not (>= x!1 43)))
         (or (not (<= x!0 22)) (not (>= x!1 45)))
         (or (not (<= x!0 23)) (not (>= x!1 47)))
         (or (not (<= x!0 24)) (not (>= x!1 49)))
         (or (not (<= x!0 25)) (not (>= x!1 51)))
         (or (not (<= x!0 26)) (not (>= x!1 53)))
         (or (not (<= x!0 27)) (not (>= x!1 55)))
         (or (not (<= x!0 28)) (not (>= x!1 57)))
         (or (not (<= x!0 29)) (not (>= x!1 59)))
         (or (not (<= x!0 30)) (not (>= x!1 61)))
         (or (not (<= x!0 31)) (not (>= x!1 63)))
         (or (not (<= x!0 32)) (not (>= x!1 65)))
         (or (not (<= x!0 33)) (not (>= x!1 67)))
         (or (not (<= x!0 34)) (not (>= x!1 69)))
         (or (not (<= x!0 35)) (not (>= x!1 71)))
         (or (not (<= x!0 36)) (not (>= x!1 73)))
         (or (not (<= x!0 37)) (not (>= x!1 75)))
         (or (not (<= x!0 38)) (not (>= x!1 77)))
         (or (not (<= x!0 39)) (not (>= x!1 79)))
         (or (not (<= x!0 40)) (not (>= x!1 81)))
         (or (not (<= x!0 41)) (not (>= x!1 83)))
         (or (not (<= x!0 42)) (not (>= x!1 85)))
         (or (not (<= x!0 43)) (not (>= x!1 87)))
         (or (not (<= x!0 44)) (not (>= x!1 89)))
         (or (not (<= x!0 45)) (not (>= x!1 91)))
         (or (not (<= x!0 46)) (not (>= x!1 93)))
         (or (not (<= x!0 47)) (not (>= x!1 95)))
         (or (not (<= x!0 48)) (not (>= x!1 97)))
         (or (not (<= x!0 49)) (not (>= x!1 99)))
         (or (not (<= x!0 50)) (not (>= x!1 101)))
         (or (not (<= x!0 51)) (not (>= x!1 103)))
         (or (not (<= x!0 52)) (not (>= x!1 105)))
         (or (not (<= x!0 53)) (not (>= x!1 107)))
         (or (not (<= x!0 54)) (not (>= x!1 109)))
         (or (not (<= x!0 55)) (not (>= x!1 111)))
         (or (not (<= x!0 56)) (not (>= x!1 113)))
         (or (not (<= x!0 57)) (not (>= x!1 115)))
         (or (not (<= x!0 58)) (not (>= x!1 117)))
         (or (not (<= x!0 59)) (not (>= x!1 119)))
         (or (not (<= x!0 60)) (not (>= x!1 121)))
         (or (not (<= x!0 61)) (not (>= x!1 123)))
         (or (not (<= x!0 62)) (not (>= x!1 125)))
         (or (not (<= x!0 63)) (not (>= x!1 127)))
         (or (not (<= x!0 64)) (not (>= x!1 129)))
         (or (not (<= x!0 65)) (not (>= x!1 131)))
         (or (not (<= x!0 66)) (not (>= x!1 133)))
         (or (not (<= x!0 67)) (not (>= x!1 135)))
         (or (not (<= x!0 68)) (not (>= x!1 137)))
         (or (not (<= x!0 69)) (not (>= x!1 139)))
         (or (not (<= x!0 70)) (not (>= x!1 141)))
         (or (not (<= x!0 71)) (not (>= x!1 143)))
         (or (not (<= x!0 72)) (not (>= x!1 145)))
         (or (not (<= x!0 73)) (not (>= x!1 147)))
         (or (not (<= x!0 74)) (not (>= x!1 149)))
         (or (not (<= x!0 75)) (not (>= x!1 151)))
         (or (not (<= x!0 76)) (not (>= x!1 153)))
         (or (not (<= x!0 77)) (not (>= x!1 155)))
         (or (not (<= x!0 78)) (not (>= x!1 157)))
         (or (not (<= x!0 79)) (not (>= x!1 159)))
         (or (not (<= x!0 80)) (not (>= x!1 161)))
         (or (not (<= x!0 81)) (not (>= x!1 163)))
         (or (not (<= x!0 82)) (not (>= x!1 165)))
         (or (not (<= x!0 83)) (not (>= x!1 167)))
         (or (not (<= x!0 84)) (not (>= x!1 169)))
         (or (not (<= x!0 85)) (not (>= x!1 171)))
         (or (not (<= x!0 86)) (not (>= x!1 173)))
         (or (not (<= x!0 87)) (not (>= x!1 175)))
         (or (not (<= x!0 88)) (not (>= x!1 177)))
         (or (not (<= x!0 89)) (not (>= x!1 179)))
         (or (not (<= x!0 90)) (not (>= x!1 181)))
         (or (not (<= x!0 91)) (not (>= x!1 183)))
         (or (not (<= x!0 92)) (not (>= x!1 185)))
         (or (not (<= x!0 93)) (not (>= x!1 187)))
         (or (not (<= x!0 94)) (not (>= x!1 189)))
         (or (not (<= x!0 95)) (not (>= x!1 191)))
         (or (not (<= x!0 96)) (not (>= x!1 193)))
         (or (not (<= x!0 97)) (not (>= x!1 195)))
         (or (not (<= x!0 98)) (not (>= x!1 197)))))
)
